# Objective value = 1.9787387456085391e+03
x[0] 1
x[1] 1
x[2] 0
x[3] 1
x[4] 0
x[5] 0
x[6] 0
x[7] 0
x[8] 0
x[9] 1
x[10] 0
x[11] 1
x[12] 1
x[13] 1
x[14] 1
x[15] 1
x[16] 1
x[17] 0
x[18] 1
x[19] 1
x[20] 1
x[21] 1
x[22] 0
x[23] 1
x[24] 1
x[25] 1
x[26] 1
x[27] 1
x[28] 0
x[29] 1
x[30] 1
x[31] 1
x[32] 1
x[33] 0
x[34] 1
x[35] 1
x[36] 0
x[37] 1
x[38] 0
x[39] 0
x[40] 1
x[41] 1
x[42] 0
x[43] 0
x[44] 1
x[45] 0
x[46] 1
x[47] 1
x[48] 1
x[49] 1
x[50] 1
x[51] 1
x[52] 0
x[53] 0
x[54] 1
x[55] 0
x[56] 0
x[57] 0
x[58] 0
x[59] 0
x[60] 0
x[61] 1
x[62] 1
x[63] 0
x[64] 0
x[65] 0
x[66] 1
x[67] 1
x[68] 1
x[69] 1
x[70] 1
x[71] 1
x[72] 0
x[73] 0
x[74] 1
x[75] 1
x[76] 0
x[77] 1
x[78] 0
x[79] 0
x[80] 1
x[81] 0
x[82] 0
x[83] 1
x[84] 0
x[85] 0
x[86] 0
x[87] 0
x[88] 1
x[89] 1
x[90] 0
x[91] 1
x[92] 1
x[93] 1
x[94] 1
x[95] 0
x[96] 1
x[97] 1
x[98] 0
x[99] 0
x[100] 1
x[101] 1
x[102] 1
x[103] 1
x[104] 0
x[105] 1
x[106] 0
x[107] 1
x[108] 1
x[109] 1
x[110] 0
x[111] 0
x[112] 1
x[113] 1
x[114] 1
x[115] 1
x[116] 0
x[117] 1
x[118] 0
x[119] 0
x[120] 1
x[121] 1
x[122] 0
x[123] 1
x[124] 0
x[125] 0
x[126] 0
x[127] 0
x[128] 1
x[129] 0
x[130] 0
x[131] 0
x[132] 1
x[133] 1
x[134] 1
x[135] 0
x[136] 1
x[137] 1
x[138] 0
x[139] 0
x[140] 0
x[141] 1
x[142] 1
x[143] 0
x[144] 0
x[145] 0
x[146] 1
x[147] 1
x[148] 1
x[149] 1
x[150] 1
x[151] 1
x[152] 1
x[153] 1
x[154] 0
x[155] 1
x[156] 0
x[157] 1
x[158] 1
x[159] 0
x[160] 0
x[161] 0
x[162] 0
x[163] 0
x[164] 0
x[165] 1
x[166] 1
x[167] 1
x[168] 1
x[169] 1
x[170] 0
x[171] 1
x[172] 1
x[173] 0
x[174] 1
x[175] 1
x[176] 0
x[177] 1
x[178] 1
x[179] 1
x[180] 0
x[181] 0
x[182] 0
x[183] 1
x[184] 0
x[185] 0
x[186] 1
x[187] 0
x[188] 0
x[189] 0
x[190] 0
x[191] 0
x[192] 0
x[193] 0
x[194] 0
x[195] 1
x[196] 1
x[197] 1
x[198] 1
x[199] 1
x[200] 1
x[201] 0
x[202] 1
x[203] 0
x[204] 0
x[205] 1
x[206] 1
x[207] 1
x[208] 0
x[209] 1
x[210] 1
x[211] 0
x[212] 1
x[213] 1
x[214] 1
x[215] 0
x[216] 1
x[217] 1
x[218] 1
x[219] 1
x[220] 1
x[221] 1
x[222] 0
x[223] 1
x[224] 0
x[225] 1
x[226] 1
x[227] 0
x[228] 1
x[229] 1
x[230] 0
x[231] 0
x[232] 0
x[233] 0
x[234] 1
x[235] 0
x[236] 0
x[237] 1
x[238] 1
x[239] 1
x[240] 1
x[241] 0
x[242] 1
x[243] 1
x[244] 0
x[245] 1
x[246] 0
x[247] 1
x[248] 0
x[249] 1
x[250] 0
x[251] 1
x[252] 1
x[253] 0
x[254] 1
x[255] 0
x[256] 0
x[257] 0
x[258] 0
x[259] 1
x[260] 1
x[261] 1
x[262] 0
x[263] 1
x[264] 1
x[265] 1
x[266] 1
x[267] 0
x[268] 1
x[269] 1
x[270] 1
x[271] 0
x[272] 0
x[273] 0
x[274] 1
x[275] 1
x[276] 0
x[277] 0
x[278] 1
x[279] 1
x[280] 1
x[281] 1
x[282] 1
x[283] 1
x[284] 0
x[285] 0
x[286] 0
x[287] 0
x[288] 0
x[289] 1
x[290] 1
x[291] 1
x[292] 0
x[293] 0
x[294] 0
x[295] 0
x[296] 1
x[297] 1
x[298] 0
x[299] 1
x[300] 1
x[301] 1
x[302] 0
x[303] 1
x[304] 1
x[305] 0
x[306] 1
x[307] 1
x[308] 1
x[309] 1
x[310] 0
x[311] 1
x[312] 1
x[313] 1
x[314] 0
x[315] 1
x[316] 0
x[317] 1
x[318] 1
x[319] 1
x[320] 1
x[321] 1
x[322] 1
x[323] 1
x[324] 1
x[325] 1
x[326] 1
x[327] 1
x[328] 1
x[329] 0
x[330] 1
x[331] 0
x[332] 0
x[333] 0
x[334] 0
x[335] 1
x[336] 1
x[337] 1
x[338] 1
x[339] 0
x[340] 1
x[341] 0
x[342] 0
x[343] 0
x[344] 0
x[345] 0
x[346] 1
x[347] 1
x[348] 1
x[349] 0
x[350] 0
x[351] 1
x[352] 0
x[353] 0
x[354] 1
x[355] 0
x[356] 0
x[357] 0
x[358] 1
x[359] 1
x[360] 0
x[361] 1
x[362] 1
x[363] 1
x[364] 1
x[365] 1
x[366] 1
x[367] 0
x[368] 1
x[369] 1
x[370] 0
x[371] 1
x[372] 1
x[373] 0
x[374] 0
x[375] 0
x[376] 1
x[377] 0
x[378] 1
x[379] 0
x[380] 1
x[381] 1
x[382] 1
x[383] 1
x[384] 0
x[385] 0
x[386] 1
x[387] 1
x[388] 1
x[389] 1
x[390] 1
x[391] 0
x[392] 1
x[393] 1
x[394] 0
x[395] 0
x[396] 1
x[397] 1
x[398] 1
x[399] 0
x[400] 0
x[401] 1
x[402] 1
x[403] 1
x[404] 0
x[405] 1
x[406] 1
x[407] 1
x[408] 0
x[409] 1
x[410] 0
x[411] 1
x[412] 1
x[413] 1
x[414] 0
x[415] 1
x[416] 1
x[417] 1
x[418] 0
x[419] 0
x[420] 0
x[421] 0
x[422] 1
x[423] 1
x[424] 1
x[425] 0
x[426] 1
x[427] 1
x[428] 1
x[429] 1
x[430] 1
x[431] 0
x[432] 1
x[433] 1
x[434] 1
x[435] 0
x[436] 0
x[437] 0
x[438] 1
x[439] 1
x[440] 1
x[441] 1
x[442] 0
x[443] 1
x[444] 0
x[445] 1
x[446] 0
x[447] 1
x[448] 0
x[449] 0
x[450] 0
x[451] 0
x[452] 1
x[453] 1
x[454] 0
x[455] 0
x[456] 0
x[457] 0
x[458] 0
x[459] 1
x[460] 0
x[461] 1
x[462] 1
x[463] 1
x[464] 0
x[465] 1
x[466] 0
x[467] 1
x[468] 0
x[469] 1
x[470] 0
x[471] 0
x[472] 0
x[473] 1
x[474] 1
x[475] 1
x[476] 1
x[477] 1
x[478] 1
x[479] 1
x[480] 1
x[481] 1
x[482] 1
x[483] 0
x[484] 0
x[485] 1
x[486] 0
x[487] 1
x[488] 0
x[489] 0
x[490] 1
x[491] 1
x[492] 1
x[493] 0
x[494] 1
x[495] 0
x[496] 1
x[497] 0
x[498] 0
x[499] 1
x[500] 0
x[501] 1
x[502] 0
x[503] 0
x[504] 0
x[505] 1
x[506] 0
x[507] 1
x[508] 1
x[509] 1
x[510] 0
x[511] 1
x[512] 0
x[513] 1
x[514] 1
x[515] 1
x[516] 1
x[517] 0
x[518] 1
x[519] 1
x[520] 0
x[521] 0
x[522] 1
x[523] 0
x[524] 0
x[525] 1
x[526] 0
x[527] 1
x[528] 0
x[529] 1
x[530] 1
x[531] 1
x[532] 1
x[533] 1
x[534] 1
x[535] 0
x[536] 0
x[537] 0
x[538] 0
x[539] 1
x[540] 0
x[541] 0
x[542] 0
x[543] 1
x[544] 1
x[545] 0
x[546] 0
x[547] 1
x[548] 0
x[549] 1
x[550] 1
x[551] 0
x[552] 0
x[553] 1
x[554] 1
x[555] 1
x[556] 1
x[557] 1
x[558] 0
x[559] 0
x[560] 1
x[561] 0
x[562] 1
x[563] 1
x[564] 1
x[565] 1
x[566] 0
x[567] 0
x[568] 0
x[569] 0
x[570] 1
x[571] 0
x[572] 1
x[573] 1
x[574] 1
x[575] 1
x[576] 1
x[577] 1
x[578] 1
x[579] 0
x[580] 0
x[581] 1
x[582] 1
x[583] 0
x[584] 1
x[585] 1
x[586] 1
x[587] 1
x[588] 0
x[589] 0
x[590] 1
x[591] 0
x[592] 0
x[593] 1
x[594] 0
x[595] 1
x[596] 1
x[597] 1
x[598] 0
x[599] 1
x[600] 1
x[601] 1
x[602] 0
x[603] 0
x[604] 1
x[605] 0
x[606] 1
x[607] 1
x[608] 1
x[609] 0
x[610] 0
x[611] 0
x[612] 0
x[613] 0
x[614] 0
x[615] 1
x[616] 1
x[617] 0
x[618] 0
x[619] 1
x[620] 0
x[621] 1
x[622] 0
x[623] 1
x[624] 1
x[625] 1
x[626] 0
x[627] 1
x[628] 1
x[629] 0
x[630] 0
x[631] 0
x[632] 0
x[633] 1
x[634] 1
x[635] 0
x[636] 0
x[637] 1
x[638] 0
x[639] 1
x[640] 1
x[641] 1
x[642] 1
x[643] 0
x[644] 1
x[645] 1
x[646] 1
x[647] 1
x[648] 1
x[649] 0
x[650] 0
x[651] 1
x[652] 1
x[653] 0
x[654] 0
x[655] 1
x[656] 0
x[657] 1
x[658] 0
x[659] 1
x[660] 1
x[661] 1
x[662] 1
x[663] 0
x[664] 0
x[665] 0
x[666] 1
x[667] 1
x[668] 0
x[669] 1
x[670] 0
x[671] 1
x[672] 0
x[673] 1
x[674] 0
x[675] 0
x[676] 0
x[677] 1
x[678] 0
x[679] 0
x[680] 0
x[681] 1
x[682] 1
x[683] 0
x[684] 0
x[685] 0
x[686] 0
x[687] 0
x[688] 1
x[689] 0
x[690] 1
x[691] 1
x[692] 0
x[693] 1
x[694] 0
x[695] 0
x[696] 1
x[697] 1
x[698] 1
x[699] 0
x[700] 0
x[701] 0
x[702] 1
x[703] 1
x[704] 0
x[705] 0
x[706] 0
x[707] 1
x[708] 1
x[709] 1
x[710] 1
x[711] 0
x[712] 1
x[713] 0
x[714] 1
x[715] 1
x[716] 1
x[717] 1
x[718] 0
x[719] 1
x[720] 0
x[721] 1
x[722] 1
x[723] 0
x[724] 0
x[725] 1
x[726] 0
x[727] 1
x[728] 1
x[729] 1
x[730] 1
x[731] 0
x[732] 0
x[733] 1
x[734] 1
x[735] 0
x[736] 0
x[737] 0
x[738] 1
x[739] 0
x[740] 1
x[741] 1
x[742] 1
x[743] 1
x[744] 1
x[745] 0
x[746] 1
x[747] 0
x[748] 0
x[749] 1
x[750] 0
x[751] 0
x[752] 1
x[753] 0
x[754] 1
x[755] 1
x[756] 0
x[757] 0
x[758] 1
x[759] 0
x[760] 0
x[761] 0
x[762] 0
x[763] 0
x[764] 0
x[765] 0
x[766] 1
x[767] 1
x[768] 1
x[769] 0
x[770] 0
x[771] 0
x[772] 0
x[773] 1
x[774] 0
x[775] 1
x[776] 1
x[777] 0
x[778] 1
x[779] 1
x[780] 0
x[781] 1
x[782] 1
x[783] 1
x[784] 1
x[785] 1
x[786] 1
x[787] 1
x[788] 0
x[789] 1
x[790] 1
x[791] 1
x[792] 0
x[793] 1
x[794] 0
x[795] 0
x[796] 0
x[797] 1
x[798] 1
x[799] 1
x[800] 0
x[801] 0
x[802] 0
x[803] 1
x[804] 0
x[805] 1
x[806] 1
x[807] 0
x[808] 0
x[809] 0
x[810] 0
x[811] 1
x[812] 0
x[813] 0
x[814] 0
x[815] 0
x[816] 1
x[817] 1
x[818] 0
x[819] 1
x[820] 1
x[821] 1
x[822] 1
x[823] 1
x[824] 0
x[825] 0
x[826] 0
x[827] 0
x[828] 0
x[829] 1
x[830] 1
x[831] 0
x[832] 0
x[833] 0
x[834] 1
x[835] 1
x[836] 1
x[837] 1
x[838] 1
x[839] 1
x[840] 1
x[841] 1
x[842] 1
x[843] 1
x[844] 0
x[845] 1
x[846] 0
x[847] 0
x[848] 1
x[849] 1
x[850] 0
x[851] 0
x[852] 1
x[853] 1
x[854] 1
x[855] 1
x[856] 0
x[857] 1
x[858] 1
x[859] 1
x[860] 0
x[861] 0
x[862] 0
x[863] 1
x[864] 0
x[865] 1
x[866] 1
x[867] 1
x[868] 0
x[869] 1
x[870] 1
x[871] 1
x[872] 1
x[873] 1
x[874] 1
x[875] 1
x[876] 0
x[877] 1
x[878] 0
x[879] 1
x[880] 0
x[881] 0
x[882] 0
x[883] 1
x[884] 1
x[885] 1
x[886] 0
x[887] 0
x[888] 0
x[889] 1
x[890] 1
x[891] 1
x[892] 0
x[893] 1
x[894] 0
x[895] 1
x[896] 1
x[897] 0
x[898] 0
x[899] 1
x[900] 0
x[901] 1
x[902] 0
x[903] 1
x[904] 1
x[905] 0
x[906] 1
x[907] 1
x[908] 0
x[909] 1
x[910] 1
x[911] 0
x[912] 1
x[913] 1
x[914] 1
x[915] 1
x[916] 1
x[917] 1
x[918] 0
x[919] 1
x[920] 1
x[921] 0
x[922] 0
x[923] 0
x[924] 1
x[925] 1
x[926] 0
x[927] 0
x[928] 1
x[929] 1
x[930] 0
x[931] 0
x[932] 0
x[933] 0
x[934] 1
x[935] 1
x[936] 1
x[937] 1
x[938] 0
x[939] 1
x[940] 0
x[941] 0
x[942] 1
x[943] 1
x[944] 1
x[945] 0
x[946] 1
x[947] 1
x[948] 0
x[949] 1
x[950] 1
x[951] 1
x[952] 1
x[953] 1
x[954] 0
x[955] 0
x[956] 0
x[957] 1
x[958] 1
x[959] 0
x[960] 1
x[961] 1
x[962] 0
x[963] 1
x[964] 1
x[965] 1
x[966] 0
x[967] 1
x[968] 0
x[969] 0
x[970] 0
x[971] 1
x[972] 1
x[973] 1
x[974] 1
x[975] 1
x[976] 0
x[977] 1
x[978] 0
x[979] 1
x[980] 1
x[981] 0
x[982] 1
x[983] 1
x[984] 1
x[985] 0
x[986] 1
x[987] 0
x[988] 0
x[989] 1
x[990] 0
x[991] 1
x[992] 0
x[993] 0
x[994] 0
x[995] 1
x[996] 1
x[997] 0
x[998] 0
x[999] 0
